p cnf 22 7
a 1 2 3 4 0
e 5 0
a 6 7 0
e 8 9 0
a 10 0
e 11 0
a 12 13 0
e 14 15 0
a 16 0
e 17 18 19 0
a 20 0
e 21 22 0
-5 13 -6 10 0
-10 22 6 5 7 0
-18 -19 -9 -1 -12 0
13 -4 15 -16 -10 0
-2 11 -14 -19 0
-3 9 5 -7 0
9 7 4 -1 -10 0
